proyfinal/src/viki/013/experimentInOfficeAgust.take6.output/2c773c47-5d7e-40c9-816d-d89ada88b34f.als.dat
{'cnf.clauses': '118081',
 'cnf.totvars': '69608',
 'conflict literals': '94',
 'conflicts': '29',
 'decisions': '7192',
 'memused.mb': '16.14',
 'outcome': 'UNSAT',
 'propagations': '31839',
 'restarts': '1',
 'solver.msecs': 34,
 'task.msecs': 155}
