proyfinal/src/viki/013/experimentInOfficeAgust.take6.output/2c773c47-5d7e-40c9-816d-d89ada88b34f.als.out
Reading from standard input... Use '--help' for help.
============================[ Problem Statistics ]=============================
|                                                                             |
|  Number of variables:         69608                                         |
|  Number of clauses:          118081                                         |
|  Parse time:                   0.02 s                                       |
|                                                                             |
============================[ Search Statistics ]==============================
| Conflicts |          ORIGINAL         |          LEARNT          | Progress |
|           |    Vars  Clauses Literals |    Limit  Clauses Lit/Cl |          |
===============================================================================
===============================================================================
restarts              : 1
conflicts             : 29             (837 /sec)
decisions             : 7192           (0.00 % random) (207585 /sec)
propagations          : 31839          (918981 /sec)
conflict literals     : 94             (0.00 % deleted)
Memory used           : 16.14 MB
CPU time              : 0.034646 s

UNSATISFIABLE
